NAME          
ROWS
 N  OBJ
 L  c1
 L  c2
 L  c3
COLUMNS
    MARKER    'MARKER'                 'INTORG'
    x[1]      c1        524
    x[1]      c2        424
    x[1]      c3        724
    x[1]      OBJ       -827
    x[2]      c1        805
    x[2]      c2        218
    x[2]      c3        139
    x[2]      OBJ       -656
    x[3]      c1        120
    x[3]      c2        551
    x[3]      c3        667
    x[3]      OBJ       -151
    x[4]      c1        364
    x[4]      c2        74
    x[4]      c3        895
    x[4]      OBJ       -24
    x[5]      c1        875
    x[5]      c2        484
    x[5]      c3        645
    x[5]      OBJ       -273
    x[6]      c1        932
    x[6]      c2        207
    x[6]      c3        955
    x[6]      OBJ       -248
    x[7]      c1        552
    x[7]      c2        88
    x[7]      c3        323
    x[7]      OBJ       -188
    x[8]      c1        188
    x[8]      c2        268
    x[8]      c3        211
    x[8]      OBJ       -254
    x[9]      c1        953
    x[9]      c2        78
    x[9]      c3        356
    x[9]      OBJ       -35
    x[10]     c1        741
    x[10]     c2        303
    x[10]     c3        629
    x[10]     OBJ       -374
RHS
    rhs       c1        3027
    rhs       c2        1348
    rhs       c3        2772
RANGES
BOUNDS
 BV bounds    x[1]
 BV bounds    x[2]
 BV bounds    x[3]
 BV bounds    x[4]
 BV bounds    x[5]
 BV bounds    x[6]
 BV bounds    x[7]
 BV bounds    x[8]
 BV bounds    x[9]
 BV bounds    x[10]
ENDATA
